Optimal - objective value 2.00000000
      0 x_0_0                    1                       1
      1 x_1_0                    0                       0
      2 x_1_1                    1                       1
      3 x_2_0                    1                       0
      4 x_2_1                    0                       0
      5 x_2_2                    0                       1
      6 x_3_0                    0                       0
      7 x_3_1                    1                       0
      8 x_3_2                    0                       0
      9 x_3_3                    0                       1
